column=9;
row=9;
Board=[|4,2,0,0,0,7,6,0,3|5,3,7,0,6,8,0,0,4|0,0,0,2,3,4,7,1,0|6,8,0,3,2,5,0,0,0|3,1,2,4,7,0,5,9,0|7,0,5,9,0,0,3,6,2|8,5,0,7,0,0,2,0,0|0,0,6,8,4,3,0,0,9|0,0,0,0,5,2,8,3,0|];
horizontal=[|0,2,1,1,2,2,1,2|2,1,0,1,0,1,2,1|2,1,0,1,1,1,0,1|0,1,2,0,1,2,1,0|2,1,1,0,0,2,0,2|2,1,1,2,2,1,0,2|0,0,1,2,1,2,1,0|1,2,0,2,2,0,1,0|1,0,1,2,2,1,2,1|];
vertical=[|1,0,0,2,0,1,1,2,1|1,1,1,1,0,2,0,0,0|2,0,1,1,2,0,2,0,2|2,2,2,1,1,1,0,1,1|1,0,1,1,1,0,2,2,0|1,1,2,0,2,1,2,0,0|0,1,0,1,1,2,2,1,1|2,1,0,2,1,0,1,0,2|];
